[VALIDATOR STDOUT]
Type-checking pick-package
...action passes type checking.
Type-checking drop-package
...action passes type checking.
Type-checking move
...action passes type checking.
Checking plan: /home/jfan5/Safety-gen/runs/benchmark/optic/delivery_20260215_225923/delivery/optic_results/delivery_size37_packages1_seed37001.plan
Plan to validate:

Plan size: 249
1:
(move t1 c_2_17 c_2_16)
 
2:
(move t1 c_2_16 c_2_15)
 
3:
(move t1 c_2_15 c_3_15)
 
4:
(move t1 c_3_15 c_4_15)
 
5:
(move t1 c_4_15 c_5_15)
 
6:
(move t1 c_5_15 c_6_15)
 
7:
(move t1 c_6_15 c_7_15)
 
8:
(move t1 c_7_15 c_8_15)
 
9:
(move t1 c_8_15 c_9_15)
 
10:
(move t1 c_9_15 c_10_15)
 
11:
(move t1 c_10_15 c_11_15)
 
12:
(move t1 c_11_15 c_12_15)
 
13:
(move t1 c_12_15 c_13_15)
 
14:
(move t1 c_13_15 c_14_15)
 
15:
(move t1 c_14_15 c_15_15)
 
16:
(move t1 c_15_15 c_16_15)
 
17:
(move t1 c_16_15 c_17_15)
 
18:
(move t1 c_17_15 c_18_15)
 
19:
(move t1 c_18_15 c_19_15)
 
20:
(move t1 c_19_15 c_20_15)
 
21:
(move t1 c_20_15 c_21_15)
 
22:
(move t1 c_21_15 c_22_15)
 
23:
(move t1 c_22_15 c_23_15)
 
24:
(move t1 c_23_15 c_24_15)
 
25:
(move t1 c_24_15 c_25_15)
 
26:
(pick-package t1 p3 c_25_15)
 
27:
(move t1 c_25_15 c_25_16)
 
28:
(move t1 c_25_16 c_25_17)
 
29:
(move t1 c_25_17 c_25_18)
 
30:
(move t1 c_25_18 c_25_19)
 
31:
(move t1 c_25_19 c_25_20)
 
32:
(move t1 c_25_20 c_25_21)
 
33:
(move t1 c_25_21 c_25_22)
 
34:
(move t1 c_25_22 c_25_23)
 
35:
(move t1 c_25_23 c_25_24)
 
36:
(move t1 c_25_24 c_25_25)
 
37:
(move t1 c_25_25 c_25_26)
 
38:
(move t1 c_25_26 c_25_27)
 
39:
(move t1 c_25_27 c_25_28)
 
40:
(move t1 c_25_28 c_25_29)
 
41:
(move t1 c_25_29 c_25_30)
 
42:
(move t1 c_25_30 c_26_30)
 
43:
(move t1 c_26_30 c_27_30)
 
44:
(move t1 c_27_30 c_28_30)
 
45:
(move t1 c_28_30 c_29_30)
 
46:
(move t1 c_29_30 c_30_30)
 
47:
(drop-package t1 p3 c_30_30)
 
48:
(move t1 c_30_30 c_31_30)
 
49:
(pick-package t1 p2 c_31_30)
 
50:
(move t1 c_31_30 c_30_30)
 
51:
(move t1 c_30_30 c_29_30)
 
52:
(drop-package t1 p2 c_29_30)
 
53:
(move t1 c_29_30 c_30_30)
 
54:
(pick-package t1 p3 c_30_30)
 
55:
(move t1 c_30_30 c_29_30)
 
56:
(move t1 c_29_30 c_28_30)
 
57:
(drop-package t1 p3 c_28_30)
 
58:
(move t1 c_28_30 c_29_30)
 
59:
(pick-package t1 p2 c_29_30)
 
60:
(move t1 c_29_30 c_28_30)
 
61:
(move t1 c_28_30 c_27_30)
 
62:
(drop-package t1 p2 c_27_30)
 
63:
(move t1 c_27_30 c_28_30)
 
64:
(pick-package t1 p3 c_28_30)
 
65:
(move t1 c_28_30 c_27_30)
 
66:
(move t1 c_27_30 c_26_30)
 
67:
(drop-package t1 p3 c_26_30)
 
68:
(move t1 c_26_30 c_27_30)
 
69:
(pick-package t1 p2 c_27_30)
 
70:
(move t1 c_27_30 c_26_30)
 
71:
(move t1 c_26_30 c_25_30)
 
72:
(drop-package t1 p2 c_25_30)
 
73:
(move t1 c_25_30 c_26_30)
 
74:
(pick-package t1 p3 c_26_30)
 
75:
(move t1 c_26_30 c_25_30)
 
76:
(move t1 c_25_30 c_24_30)
 
77:
(drop-package t1 p3 c_24_30)
 
78:
(move t1 c_24_30 c_25_30)
 
79:
(pick-package t1 p2 c_25_30)
 
80:
(move t1 c_25_30 c_24_30)
 
81:
(move t1 c_24_30 c_23_30)
 
82:
(drop-package t1 p2 c_23_30)
 
83:
(move t1 c_23_30 c_24_30)
 
84:
(pick-package t1 p3 c_24_30)
 
85:
(move t1 c_24_30 c_23_30)
 
86:
(move t1 c_23_30 c_22_30)
 
87:
(drop-package t1 p3 c_22_30)
 
88:
(move t1 c_22_30 c_23_30)
 
89:
(pick-package t1 p2 c_23_30)
 
90:
(move t1 c_23_30 c_22_30)
 
91:
(move t1 c_22_30 c_21_30)
 
92:
(drop-package t1 p2 c_21_30)
 
93:
(move t1 c_21_30 c_22_30)
 
94:
(pick-package t1 p3 c_22_30)
 
95:
(move t1 c_22_30 c_21_30)
 
96:
(move t1 c_21_30 c_20_30)
 
97:
(drop-package t1 p3 c_20_30)
 
98:
(move t1 c_20_30 c_21_30)
 
99:
(pick-package t1 p2 c_21_30)
 
100:
(move t1 c_21_30 c_20_30)
 
101:
(move t1 c_20_30 c_19_30)
 
102:
(drop-package t1 p2 c_19_30)
 
103:
(move t1 c_19_30 c_20_30)
 
104:
(pick-package t1 p3 c_20_30)
 
105:
(move t1 c_20_30 c_19_30)
 
106:
(move t1 c_19_30 c_18_30)
 
107:
(drop-package t1 p3 c_18_30)
 
108:
(move t1 c_18_30 c_19_30)
 
109:
(pick-package t1 p2 c_19_30)
 
110:
(move t1 c_19_30 c_18_30)
 
111:
(move t1 c_18_30 c_17_30)
 
112:
(drop-package t1 p2 c_17_30)
 
113:
(move t1 c_17_30 c_18_30)
 
114:
(pick-package t1 p3 c_18_30)
 
115:
(move t1 c_18_30 c_17_30)
 
116:
(move t1 c_17_30 c_16_30)
 
117:
(drop-package t1 p3 c_16_30)
 
118:
(move t1 c_16_30 c_17_30)
 
119:
(pick-package t1 p2 c_17_30)
 
120:
(move t1 c_17_30 c_16_30)
 
121:
(move t1 c_16_30 c_15_30)
 
122:
(drop-package t1 p2 c_15_30)
 
123:
(move t1 c_15_30 c_16_30)
 
124:
(pick-package t1 p3 c_16_30)
 
125:
(move t1 c_16_30 c_15_30)
 
126:
(move t1 c_15_30 c_14_30)
 
127:
(drop-package t1 p3 c_14_30)
 
128:
(move t1 c_14_30 c_15_30)
 
129:
(pick-package t1 p2 c_15_30)
 
130:
(move t1 c_15_30 c_14_30)
 
131:
(move t1 c_14_30 c_13_30)
 
132:
(drop-package t1 p2 c_13_30)
 
133:
(move t1 c_13_30 c_14_30)
 
134:
(pick-package t1 p3 c_14_30)
 
135:
(move t1 c_14_30 c_13_30)
 
136:
(move t1 c_13_30 c_12_30)
 
137:
(drop-package t1 p3 c_12_30)
 
138:
(move t1 c_12_30 c_13_30)
 
139:
(pick-package t1 p2 c_13_30)
 
140:
(move t1 c_13_30 c_12_30)
 
141:
(move t1 c_12_30 c_11_30)
 
142:
(drop-package t1 p2 c_11_30)
 
143:
(move t1 c_11_30 c_12_30)
 
144:
(pick-package t1 p3 c_12_30)
 
145:
(move t1 c_12_30 c_11_30)
 
146:
(move t1 c_11_30 c_10_30)
 
147:
(drop-package t1 p3 c_10_30)
 
148:
(move t1 c_10_30 c_11_30)
 
149:
(pick-package t1 p2 c_11_30)
 
150:
(move t1 c_11_30 c_10_30)
 
151:
(move t1 c_10_30 c_10_29)
 
152:
(drop-package t1 p2 c_10_29)
 
153:
(move t1 c_10_29 c_10_30)
 
154:
(pick-package t1 p3 c_10_30)
 
155:
(move t1 c_10_30 c_10_29)
 
156:
(move t1 c_10_29 c_10_28)
 
157:
(move t1 c_10_28 c_10_27)
 
158:
(move t1 c_10_27 c_10_26)
 
159:
(move t1 c_10_26 c_10_25)
 
160:
(move t1 c_10_25 c_10_24)
 
161:
(drop-package t1 p3 c_10_24)
 
162:
(move t1 c_10_24 c_10_25)
 
163:
(move t1 c_10_25 c_10_26)
 
164:
(move t1 c_10_26 c_10_27)
 
165:
(move t1 c_10_27 c_10_28)
 
166:
(move t1 c_10_28 c_10_29)
 
167:
(pick-package t1 p2 c_10_29)
 
168:
(move t1 c_10_29 c_10_28)
 
169:
(move t1 c_10_28 c_10_27)
 
170:
(move t1 c_10_27 c_10_26)
 
171:
(move t1 c_10_26 c_10_25)
 
172:
(move t1 c_10_25 c_10_24)
 
173:
(drop-package t1 p2 c_10_24)
 
174:
(move t1 c_10_24 c_10_23)
 
175:
(move t1 c_10_23 c_10_22)
 
176:
(move t1 c_10_22 c_10_21)
 
177:
(move t1 c_10_21 c_10_20)
 
178:
(move t1 c_10_20 c_10_19)
 
179:
(move t1 c_10_19 c_10_18)
 
180:
(move t1 c_10_18 c_10_17)
 
181:
(move t1 c_10_17 c_10_16)
 
182:
(move t1 c_10_16 c_10_15)
 
183:
(move t1 c_10_15 c_10_14)
 
184:
(move t1 c_10_14 c_10_13)
 
185:
(move t1 c_10_13 c_10_12)
 
186:
(pick-package t1 p1 c_10_12)
 
187:
(move t1 c_10_12 c_10_13)
 
188:
(move t1 c_10_13 c_10_14)
 
189:
(move t1 c_10_14 c_10_15)
 
190:
(move t1 c_10_15 c_10_16)
 
191:
(move t1 c_10_16 c_10_17)
 
192:
(move t1 c_10_17 c_10_18)
 
193:
(move t1 c_10_18 c_10_19)
 
194:
(move t1 c_10_19 c_10_20)
 
195:
(move t1 c_10_20 c_10_21)
 
196:
(move t1 c_10_21 c_10_22)
 
197:
(move t1 c_10_22 c_10_23)
 
198:
(move t1 c_10_23 c_10_24)
 
199:
(drop-package t1 p1 c_10_24)
 
200:
(move t1 c_10_24 c_10_23)
 
201:
(move t1 c_10_23 c_10_22)
 
202:
(move t1 c_10_22 c_10_21)
 
203:
(move t1 c_10_21 c_10_20)
 
204:
(move t1 c_10_20 c_10_19)
 
205:
(move t1 c_10_19 c_10_18)
 
206:
(move t1 c_10_18 c_10_17)
 
207:
(move t1 c_10_17 c_10_16)
 
208:
(move t1 c_10_16 c_10_15)
 
209:
(move t1 c_10_15 c_10_14)
 
210:
(move t1 c_10_14 c_10_13)
 
211:
(move t1 c_10_13 c_10_12)
 
212:
(move t1 c_10_12 c_10_11)
 
213:
(move t1 c_10_11 c_10_10)
 
214:
(move t1 c_10_10 c_10_9)
 
215:
(move t1 c_10_9 c_10_8)
 
216:
(move t1 c_10_8 c_10_7)
 
217:
(move t1 c_10_7 c_10_6)
 
218:
(move t1 c_10_6 c_10_5)
 
219:
(move t1 c_10_5 c_10_4)
 
220:
(move t1 c_10_4 c_9_4)
 
221:
(move t1 c_9_4 c_8_4)
 
222:
(move t1 c_8_4 c_7_4)
 
223:
(move t1 c_7_4 c_6_4)
 
224:
(pick-package t1 p4 c_6_4)
 
225:
(move t1 c_6_4 c_6_5)
 
226:
(move t1 c_6_5 c_6_6)
 
227:
(move t1 c_6_6 c_6_7)
 
228:
(move t1 c_6_7 c_6_8)
 
229:
(move t1 c_6_8 c_6_9)
 
230:
(move t1 c_6_9 c_6_10)
 
231:
(move t1 c_6_10 c_6_11)
 
232:
(move t1 c_6_11 c_6_12)
 
233:
(move t1 c_6_12 c_6_13)
 
234:
(move t1 c_6_13 c_6_14)
 
235:
(move t1 c_6_14 c_6_15)
 
236:
(move t1 c_6_15 c_6_16)
 
237:
(move t1 c_6_16 c_6_17)
 
238:
(move t1 c_6_17 c_6_18)
 
239:
(move t1 c_6_18 c_6_19)
 
240:
(move t1 c_6_19 c_6_20)
 
241:
(move t1 c_6_20 c_6_21)
 
242:
(move t1 c_6_21 c_6_22)
 
243:
(move t1 c_6_22 c_6_23)
 
244:
(move t1 c_6_23 c_6_24)
 
245:
(move t1 c_6_24 c_7_24)
 
246:
(move t1 c_7_24 c_8_24)
 
247:
(move t1 c_8_24 c_9_24)
 
248:
(move t1 c_9_24 c_10_24)
 
249:
(drop-package t1 p4 c_10_24)
 

Plan Validation details
-----------------------

Checking next happening (time 1)
Deleting (at t1 c_2_17)
Adding (at t1 c_2_16)

Checking next happening (time 2)
Deleting (at t1 c_2_16)
Adding (at t1 c_2_15)

Checking next happening (time 3)
Deleting (at t1 c_2_15)
Adding (at t1 c_3_15)

Checking next happening (time 4)
Deleting (at t1 c_3_15)
Adding (at t1 c_4_15)

Checking next happening (time 5)
Deleting (at t1 c_4_15)
Adding (at t1 c_5_15)

Checking next happening (time 6)
Deleting (at t1 c_5_15)
Adding (at t1 c_6_15)

Checking next happening (time 7)
Deleting (at t1 c_6_15)
Adding (at t1 c_7_15)

Checking next happening (time 8)
Deleting (at t1 c_7_15)
Adding (at t1 c_8_15)

Checking next happening (time 9)
Deleting (at t1 c_8_15)
Adding (at t1 c_9_15)

Checking next happening (time 10)
Deleting (at t1 c_9_15)
Adding (at t1 c_10_15)

Checking next happening (time 11)
Deleting (at t1 c_10_15)
Adding (at t1 c_11_15)

Checking next happening (time 12)
Deleting (at t1 c_11_15)
Adding (at t1 c_12_15)

Checking next happening (time 13)
Deleting (at t1 c_12_15)
Adding (at t1 c_13_15)

Checking next happening (time 14)
Deleting (at t1 c_13_15)
Adding (at t1 c_14_15)

Checking next happening (time 15)
Deleting (at t1 c_14_15)
Adding (at t1 c_15_15)

Checking next happening (time 16)
Deleting (at t1 c_15_15)
Adding (at t1 c_16_15)

Checking next happening (time 17)
Deleting (at t1 c_16_15)
Adding (at t1 c_17_15)

Checking next happening (time 18)
Deleting (at t1 c_17_15)
Adding (at t1 c_18_15)

Checking next happening (time 19)
Deleting (at t1 c_18_15)
Adding (at t1 c_19_15)

Checking next happening (time 20)
Deleting (at t1 c_19_15)
Adding (at t1 c_20_15)

Checking next happening (time 21)
Deleting (at t1 c_20_15)
Adding (at t1 c_21_15)

Checking next happening (time 22)
Deleting (at t1 c_21_15)
Adding (at t1 c_22_15)

Checking next happening (time 23)
Deleting (at t1 c_22_15)
Adding (at t1 c_23_15)

Checking next happening (time 24)
Deleting (at t1 c_23_15)
Adding (at t1 c_24_15)

Checking next happening (time 25)
Deleting (at t1 c_24_15)
Adding (at t1 c_25_15)

Checking next happening (time 26)
Deleting (at p3 c_25_15)
Deleting (empty t1)
Adding (carrying t1 p3)

Checking next happening (time 27)
Deleting (at t1 c_25_15)
Adding (at t1 c_25_16)

Checking next happening (time 28)
Deleting (at t1 c_25_16)
Adding (at t1 c_25_17)

Checking next happening (time 29)
Deleting (at t1 c_25_17)
Adding (at t1 c_25_18)

Checking next happening (time 30)
Deleting (at t1 c_25_18)
Adding (at t1 c_25_19)

Checking next happening (time 31)
Deleting (at t1 c_25_19)
Adding (at t1 c_25_20)

Checking next happening (time 32)
Deleting (at t1 c_25_20)
Adding (at t1 c_25_21)

Checking next happening (time 33)
Deleting (at t1 c_25_21)
Adding (at t1 c_25_22)

Checking next happening (time 34)
Deleting (at t1 c_25_22)
Adding (at t1 c_25_23)

Checking next happening (time 35)
Deleting (at t1 c_25_23)
Adding (at t1 c_25_24)

Checking next happening (time 36)
Deleting (at t1 c_25_24)
Adding (at t1 c_25_25)

Checking next happening (time 37)
Deleting (at t1 c_25_25)
Adding (at t1 c_25_26)

Checking next happening (time 38)
Deleting (at t1 c_25_26)
Adding (at t1 c_25_27)

Checking next happening (time 39)
Deleting (at t1 c_25_27)
Adding (at t1 c_25_28)

Checking next happening (time 40)
Deleting (at t1 c_25_28)
Adding (at t1 c_25_29)

Checking next happening (time 41)
Deleting (at t1 c_25_29)
Adding (at t1 c_25_30)

Checking next happening (time 42)
Deleting (at t1 c_25_30)
Adding (at t1 c_26_30)

Checking next happening (time 43)
Deleting (at t1 c_26_30)
Adding (at t1 c_27_30)

Checking next happening (time 44)
Deleting (at t1 c_27_30)
Adding (at t1 c_28_30)

Checking next happening (time 45)
Deleting (at t1 c_28_30)
Adding (at t1 c_29_30)

Checking next happening (time 46)
Deleting (at t1 c_29_30)
Adding (at t1 c_30_30)

Checking next happening (time 47)
Deleting (carrying t1 p3)
Adding (empty t1)
Adding (at p3 c_30_30)

Checking next happening (time 48)
Deleting (at t1 c_30_30)
Adding (at t1 c_31_30)

Checking next happening (time 49)
Deleting (at p2 c_31_30)
Deleting (empty t1)
Adding (carrying t1 p2)

Checking next happening (time 50)
Deleting (at t1 c_31_30)
Adding (at t1 c_30_30)

Checking next happening (time 51)
Deleting (at t1 c_30_30)
Adding (at t1 c_29_30)

Checking next happening (time 52)
Deleting (carrying t1 p2)
Adding (empty t1)
Adding (at p2 c_29_30)

Checking next happening (time 53)
Deleting (at t1 c_29_30)
Adding (at t1 c_30_30)

Checking next happening (time 54)
Deleting (at p3 c_30_30)
Deleting (empty t1)
Adding (carrying t1 p3)

Checking next happening (time 55)
Deleting (at t1 c_30_30)
Adding (at t1 c_29_30)

Checking next happening (time 56)
Deleting (at t1 c_29_30)
Adding (at t1 c_28_30)

Checking next happening (time 57)
Deleting (carrying t1 p3)
Adding (empty t1)
Adding (at p3 c_28_30)

Checking next happening (time 58)
Deleting (at t1 c_28_30)
Adding (at t1 c_29_30)

Checking next happening (time 59)
Deleting (at p2 c_29_30)
Deleting (empty t1)
Adding (carrying t1 p2)

Checking next happening (time 60)
Deleting (at t1 c_29_30)
Adding (at t1 c_28_30)

Checking next happening (time 61)
Deleting (at t1 c_28_30)
Adding (at t1 c_27_30)

Checking next happening (time 62)
Deleting (carrying t1 p2)
Adding (empty t1)
Adding (at p2 c_27_30)

Checking next happening (time 63)
Deleting (at t1 c_27_30)
Adding (at t1 c_28_30)

Checking next happening (time 64)
Deleting (at p3 c_28_30)
Deleting (empty t1)
Adding (carrying t1 p3)

Checking next happening (time 65)
Deleting (at t1 c_28_30)
Adding (at t1 c_27_30)

Checking next happening (time 66)
Deleting (at t1 c_27_30)
Adding (at t1 c_26_30)

Checking next happening (time 67)
Deleting (carrying t1 p3)
Adding (empty t1)
Adding (at p3 c_26_30)

Checking next happening (time 68)
Deleting (at t1 c_26_30)
Adding (at t1 c_27_30)

Checking next happening (time 69)
Deleting (at p2 c_27_30)
Deleting (empty t1)
Adding (carrying t1 p2)

Checking next happening (time 70)
Deleting (at t1 c_27_30)
Adding (at t1 c_26_30)

Checking next happening (time 71)
Deleting (at t1 c_26_30)
Adding (at t1 c_25_30)

Checking next happening (time 72)
Deleting (carrying t1 p2)
Adding (empty t1)
Adding (at p2 c_25_30)

Checking next happening (time 73)
Deleting (at t1 c_25_30)
Adding (at t1 c_26_30)

Checking next happening (time 74)
Deleting (at p3 c_26_30)
Deleting (empty t1)
Adding (carrying t1 p3)

Checking next happening (time 75)
Deleting (at t1 c_26_30)
Adding (at t1 c_25_30)

Checking next happening (time 76)
Deleting (at t1 c_25_30)
Adding (at t1 c_24_30)

Checking next happening (time 77)
Deleting (carrying t1 p3)
Adding (empty t1)
Adding (at p3 c_24_30)

Checking next happening (time 78)
Deleting (at t1 c_24_30)
Adding (at t1 c_25_30)

Checking next happening (time 79)
Deleting (at p2 c_25_30)
Deleting (empty t1)
Adding (carrying t1 p2)

Checking next happening (time 80)
Deleting (at t1 c_25_30)
Adding (at t1 c_24_30)

Checking next happening (time 81)
Deleting (at t1 c_24_30)
Adding (at t1 c_23_30)

Checking next happening (time 82)
Deleting (carrying t1 p2)
Adding (empty t1)
Adding (at p2 c_23_30)

Checking next happening (time 83)
Deleting (at t1 c_23_30)
Adding (at t1 c_24_30)

Checking next happening (time 84)
Deleting (at p3 c_24_30)
Deleting (empty t1)
Adding (carrying t1 p3)

Checking next happening (time 85)
Deleting (at t1 c_24_30)
Adding (at t1 c_23_30)

Checking next happening (time 86)
Deleting (at t1 c_23_30)
Adding (at t1 c_22_30)

Checking next happening (time 87)
Deleting (carrying t1 p3)
Adding (empty t1)
Adding (at p3 c_22_30)

Checking next happening (time 88)
Deleting (at t1 c_22_30)
Adding (at t1 c_23_30)

Checking next happening (time 89)
Deleting (at p2 c_23_30)
Deleting (empty t1)
Adding (carrying t1 p2)

Checking next happening (time 90)
Deleting (at t1 c_23_30)
Adding (at t1 c_22_30)

Checking next happening (time 91)
Deleting (at t1 c_22_30)
Adding (at t1 c_21_30)

Checking next happening (time 92)
Deleting (carrying t1 p2)
Adding (empty t1)
Adding (at p2 c_21_30)

Checking next happening (time 93)
Deleting (at t1 c_21_30)
Adding (at t1 c_22_30)

Checking next happening (time 94)
Deleting (at p3 c_22_30)
Deleting (empty t1)
Adding (carrying t1 p3)

Checking next happening (time 95)
Deleting (at t1 c_22_30)
Adding (at t1 c_21_30)

Checking next happening (time 96)
Deleting (at t1 c_21_30)
Adding (at t1 c_20_30)

Checking next happening (time 97)
Deleting (carrying t1 p3)
Adding (empty t1)
Adding (at p3 c_20_30)

Checking next happening (time 98)
Deleting (at t1 c_20_30)
Adding (at t1 c_21_30)

Checking next happening (time 99)
Deleting (at p2 c_21_30)
Deleting (empty t1)
Adding (carrying t1 p2)

Checking next happening (time 100)
Deleting (at t1 c_21_30)
Adding (at t1 c_20_30)

Checking next happening (time 101)
Deleting (at t1 c_20_30)
Adding (at t1 c_19_30)

Checking next happening (time 102)
Deleting (carrying t1 p2)
Adding (empty t1)
Adding (at p2 c_19_30)

Checking next happening (time 103)
Deleting (at t1 c_19_30)
Adding (at t1 c_20_30)

Checking next happening (time 104)
Deleting (at p3 c_20_30)
Deleting (empty t1)
Adding (carrying t1 p3)

Checking next happening (time 105)
Deleting (at t1 c_20_30)
Adding (at t1 c_19_30)

Checking next happening (time 106)
Deleting (at t1 c_19_30)
Adding (at t1 c_18_30)

Checking next happening (time 107)
Deleting (carrying t1 p3)
Adding (empty t1)
Adding (at p3 c_18_30)

Checking next happening (time 108)
Deleting (at t1 c_18_30)
Adding (at t1 c_19_30)

Checking next happening (time 109)
Deleting (at p2 c_19_30)
Deleting (empty t1)
Adding (carrying t1 p2)

Checking next happening (time 110)
Deleting (at t1 c_19_30)
Adding (at t1 c_18_30)

Checking next happening (time 111)
Deleting (at t1 c_18_30)
Adding (at t1 c_17_30)

Checking next happening (time 112)
Deleting (carrying t1 p2)
Adding (empty t1)
Adding (at p2 c_17_30)

Checking next happening (time 113)
Deleting (at t1 c_17_30)
Adding (at t1 c_18_30)

Checking next happening (time 114)
Deleting (at p3 c_18_30)
Deleting (empty t1)
Adding (carrying t1 p3)

Checking next happening (time 115)
Deleting (at t1 c_18_30)
Adding (at t1 c_17_30)

Checking next happening (time 116)
Deleting (at t1 c_17_30)
Adding (at t1 c_16_30)

Checking next happening (time 117)
Deleting (carrying t1 p3)
Adding (empty t1)
Adding (at p3 c_16_30)

Checking next happening (time 118)
Deleting (at t1 c_16_30)
Adding (at t1 c_17_30)

Checking next happening (time 119)
Deleting (at p2 c_17_30)
Deleting (empty t1)
Adding (carrying t1 p2)

Checking next happening (time 120)
Deleting (at t1 c_17_30)
Adding (at t1 c_16_30)

Checking next happening (time 121)
Deleting (at t1 c_16_30)
Adding (at t1 c_15_30)

Checking next happening (time 122)
Deleting (carrying t1 p2)
Adding (empty t1)
Adding (at p2 c_15_30)

Checking next happening (time 123)
Deleting (at t1 c_15_30)
Adding (at t1 c_16_30)

Checking next happening (time 124)
Deleting (at p3 c_16_30)
Deleting (empty t1)
Adding (carrying t1 p3)

Checking next happening (time 125)
Deleting (at t1 c_16_30)
Adding (at t1 c_15_30)

Checking next happening (time 126)
Deleting (at t1 c_15_30)
Adding (at t1 c_14_30)

Checking next happening (time 127)
Deleting (carrying t1 p3)
Adding (empty t1)
Adding (at p3 c_14_30)

Checking next happening (time 128)
Deleting (at t1 c_14_30)
Adding (at t1 c_15_30)

Checking next happening (time 129)
Deleting (at p2 c_15_30)
Deleting (empty t1)
Adding (carrying t1 p2)

Checking next happening (time 130)
Deleting (at t1 c_15_30)
Adding (at t1 c_14_30)

Checking next happening (time 131)
Deleting (at t1 c_14_30)
Adding (at t1 c_13_30)

Checking next happening (time 132)
Deleting (carrying t1 p2)
Adding (empty t1)
Adding (at p2 c_13_30)

Checking next happening (time 133)
Deleting (at t1 c_13_30)
Adding (at t1 c_14_30)

Checking next happening (time 134)
Deleting (at p3 c_14_30)
Deleting (empty t1)
Adding (carrying t1 p3)

Checking next happening (time 135)
Deleting (at t1 c_14_30)
Adding (at t1 c_13_30)

Checking next happening (time 136)
Deleting (at t1 c_13_30)
Adding (at t1 c_12_30)

Checking next happening (time 137)
Deleting (carrying t1 p3)
Adding (empty t1)
Adding (at p3 c_12_30)

Checking next happening (time 138)
Deleting (at t1 c_12_30)
Adding (at t1 c_13_30)

Checking next happening (time 139)
Deleting (at p2 c_13_30)
Deleting (empty t1)
Adding (carrying t1 p2)

Checking next happening (time 140)
Deleting (at t1 c_13_30)
Adding (at t1 c_12_30)

Checking next happening (time 141)
Deleting (at t1 c_12_30)
Adding (at t1 c_11_30)

Checking next happening (time 142)
Deleting (carrying t1 p2)
Adding (empty t1)
Adding (at p2 c_11_30)

Checking next happening (time 143)
Deleting (at t1 c_11_30)
Adding (at t1 c_12_30)

Checking next happening (time 144)
Deleting (at p3 c_12_30)
Deleting (empty t1)
Adding (carrying t1 p3)

Checking next happening (time 145)
Deleting (at t1 c_12_30)
Adding (at t1 c_11_30)

Checking next happening (time 146)
Deleting (at t1 c_11_30)
Adding (at t1 c_10_30)

Checking next happening (time 147)
Deleting (carrying t1 p3)
Adding (empty t1)
Adding (at p3 c_10_30)

Checking next happening (time 148)
Deleting (at t1 c_10_30)
Adding (at t1 c_11_30)

Checking next happening (time 149)
Deleting (at p2 c_11_30)
Deleting (empty t1)
Adding (carrying t1 p2)

Checking next happening (time 150)
Deleting (at t1 c_11_30)
Adding (at t1 c_10_30)

Checking next happening (time 151)
Deleting (at t1 c_10_30)
Adding (at t1 c_10_29)

Checking next happening (time 152)
Deleting (carrying t1 p2)
Adding (empty t1)
Adding (at p2 c_10_29)

Checking next happening (time 153)
Deleting (at t1 c_10_29)
Adding (at t1 c_10_30)

Checking next happening (time 154)
Deleting (at p3 c_10_30)
Deleting (empty t1)
Adding (carrying t1 p3)

Checking next happening (time 155)
Deleting (at t1 c_10_30)
Adding (at t1 c_10_29)

Checking next happening (time 156)
Deleting (at t1 c_10_29)
Adding (at t1 c_10_28)

Checking next happening (time 157)
Deleting (at t1 c_10_28)
Adding (at t1 c_10_27)

Checking next happening (time 158)
Deleting (at t1 c_10_27)
Adding (at t1 c_10_26)

Checking next happening (time 159)
Deleting (at t1 c_10_26)
Adding (at t1 c_10_25)

Checking next happening (time 160)
Deleting (at t1 c_10_25)
Adding (at t1 c_10_24)

Checking next happening (time 161)
Deleting (carrying t1 p3)
Adding (empty t1)
Adding (at p3 c_10_24)

Checking next happening (time 162)
Deleting (at t1 c_10_24)
Adding (at t1 c_10_25)

Checking next happening (time 163)
Deleting (at t1 c_10_25)
Adding (at t1 c_10_26)

Checking next happening (time 164)
Deleting (at t1 c_10_26)
Adding (at t1 c_10_27)

Checking next happening (time 165)
Deleting (at t1 c_10_27)
Adding (at t1 c_10_28)

Checking next happening (time 166)
Deleting (at t1 c_10_28)
Adding (at t1 c_10_29)

Checking next happening (time 167)
Deleting (at p2 c_10_29)
Deleting (empty t1)
Adding (carrying t1 p2)

Checking next happening (time 168)
Deleting (at t1 c_10_29)
Adding (at t1 c_10_28)

Checking next happening (time 169)
Deleting (at t1 c_10_28)
Adding (at t1 c_10_27)

Checking next happening (time 170)
Deleting (at t1 c_10_27)
Adding (at t1 c_10_26)

Checking next happening (time 171)
Deleting (at t1 c_10_26)
Adding (at t1 c_10_25)

Checking next happening (time 172)
Deleting (at t1 c_10_25)
Adding (at t1 c_10_24)

Checking next happening (time 173)
Deleting (carrying t1 p2)
Adding (empty t1)
Adding (at p2 c_10_24)

Checking next happening (time 174)
Deleting (at t1 c_10_24)
Adding (at t1 c_10_23)

Checking next happening (time 175)
Deleting (at t1 c_10_23)
Adding (at t1 c_10_22)

Checking next happening (time 176)
Deleting (at t1 c_10_22)
Adding (at t1 c_10_21)

Checking next happening (time 177)
Deleting (at t1 c_10_21)
Adding (at t1 c_10_20)

Checking next happening (time 178)
Deleting (at t1 c_10_20)
Adding (at t1 c_10_19)

Checking next happening (time 179)
Deleting (at t1 c_10_19)
Adding (at t1 c_10_18)

Checking next happening (time 180)
Deleting (at t1 c_10_18)
Adding (at t1 c_10_17)

Checking next happening (time 181)
Deleting (at t1 c_10_17)
Adding (at t1 c_10_16)

Checking next happening (time 182)
Deleting (at t1 c_10_16)
Adding (at t1 c_10_15)

Checking next happening (time 183)
Deleting (at t1 c_10_15)
Adding (at t1 c_10_14)

Checking next happening (time 184)
Deleting (at t1 c_10_14)
Adding (at t1 c_10_13)

Checking next happening (time 185)
Deleting (at t1 c_10_13)
Adding (at t1 c_10_12)

Checking next happening (time 186)
Deleting (at p1 c_10_12)
Deleting (empty t1)
Adding (carrying t1 p1)

Checking next happening (time 187)
Deleting (at t1 c_10_12)
Adding (at t1 c_10_13)

Checking next happening (time 188)
Deleting (at t1 c_10_13)
Adding (at t1 c_10_14)

Checking next happening (time 189)
Deleting (at t1 c_10_14)
Adding (at t1 c_10_15)

Checking next happening (time 190)
Deleting (at t1 c_10_15)
Adding (at t1 c_10_16)

Checking next happening (time 191)
Deleting (at t1 c_10_16)
Adding (at t1 c_10_17)

Checking next happening (time 192)
Deleting (at t1 c_10_17)
Adding (at t1 c_10_18)

Checking next happening (time 193)
Deleting (at t1 c_10_18)
Adding (at t1 c_10_19)

Checking next happening (time 194)
Deleting (at t1 c_10_19)
Adding (at t1 c_10_20)

Checking next happening (time 195)
Deleting (at t1 c_10_20)
Adding (at t1 c_10_21)

Checking next happening (time 196)
Deleting (at t1 c_10_21)
Adding (at t1 c_10_22)

Checking next happening (time 197)
Deleting (at t1 c_10_22)
Adding (at t1 c_10_23)

Checking next happening (time 198)
Deleting (at t1 c_10_23)
Adding (at t1 c_10_24)

Checking next happening (time 199)
Deleting (carrying t1 p1)
Adding (empty t1)
Adding (at p1 c_10_24)

Checking next happening (time 200)
Deleting (at t1 c_10_24)
Adding (at t1 c_10_23)

Checking next happening (time 201)
Deleting (at t1 c_10_23)
Adding (at t1 c_10_22)

Checking next happening (time 202)
Deleting (at t1 c_10_22)
Adding (at t1 c_10_21)

Checking next happening (time 203)
Deleting (at t1 c_10_21)
Adding (at t1 c_10_20)

Checking next happening (time 204)
Deleting (at t1 c_10_20)
Adding (at t1 c_10_19)

Checking next happening (time 205)
Deleting (at t1 c_10_19)
Adding (at t1 c_10_18)

Checking next happening (time 206)
Deleting (at t1 c_10_18)
Adding (at t1 c_10_17)

Checking next happening (time 207)
Deleting (at t1 c_10_17)
Adding (at t1 c_10_16)

Checking next happening (time 208)
Deleting (at t1 c_10_16)
Adding (at t1 c_10_15)

Checking next happening (time 209)
Deleting (at t1 c_10_15)
Adding (at t1 c_10_14)

Checking next happening (time 210)
Deleting (at t1 c_10_14)
Adding (at t1 c_10_13)

Checking next happening (time 211)
Deleting (at t1 c_10_13)
Adding (at t1 c_10_12)

Checking next happening (time 212)
Deleting (at t1 c_10_12)
Adding (at t1 c_10_11)

Checking next happening (time 213)
Deleting (at t1 c_10_11)
Adding (at t1 c_10_10)

Checking next happening (time 214)
Deleting (at t1 c_10_10)
Adding (at t1 c_10_9)

Checking next happening (time 215)
Deleting (at t1 c_10_9)
Adding (at t1 c_10_8)

Checking next happening (time 216)
Deleting (at t1 c_10_8)
Adding (at t1 c_10_7)

Checking next happening (time 217)
Deleting (at t1 c_10_7)
Adding (at t1 c_10_6)

Checking next happening (time 218)
Deleting (at t1 c_10_6)
Adding (at t1 c_10_5)

Checking next happening (time 219)
Deleting (at t1 c_10_5)
Adding (at t1 c_10_4)

Checking next happening (time 220)
Deleting (at t1 c_10_4)
Adding (at t1 c_9_4)

Checking next happening (time 221)
Deleting (at t1 c_9_4)
Adding (at t1 c_8_4)

Checking next happening (time 222)
Deleting (at t1 c_8_4)
Adding (at t1 c_7_4)

Checking next happening (time 223)
Deleting (at t1 c_7_4)
Adding (at t1 c_6_4)

Checking next happening (time 224)
Deleting (at p4 c_6_4)
Deleting (empty t1)
Adding (carrying t1 p4)

Checking next happening (time 225)
Deleting (at t1 c_6_4)
Adding (at t1 c_6_5)

Checking next happening (time 226)
Deleting (at t1 c_6_5)
Adding (at t1 c_6_6)

Checking next happening (time 227)
Deleting (at t1 c_6_6)
Adding (at t1 c_6_7)

Checking next happening (time 228)
Deleting (at t1 c_6_7)
Adding (at t1 c_6_8)

Checking next happening (time 229)
Deleting (at t1 c_6_8)
Adding (at t1 c_6_9)

Checking next happening (time 230)
Deleting (at t1 c_6_9)
Adding (at t1 c_6_10)

Checking next happening (time 231)
Deleting (at t1 c_6_10)
Adding (at t1 c_6_11)

Checking next happening (time 232)
Deleting (at t1 c_6_11)
Adding (at t1 c_6_12)

Checking next happening (time 233)
Deleting (at t1 c_6_12)
Adding (at t1 c_6_13)

Checking next happening (time 234)
Deleting (at t1 c_6_13)
Adding (at t1 c_6_14)

Checking next happening (time 235)
Deleting (at t1 c_6_14)
Adding (at t1 c_6_15)

Checking next happening (time 236)
Deleting (at t1 c_6_15)
Adding (at t1 c_6_16)

Checking next happening (time 237)
Deleting (at t1 c_6_16)
Adding (at t1 c_6_17)

Checking next happening (time 238)
Deleting (at t1 c_6_17)
Adding (at t1 c_6_18)

Checking next happening (time 239)
Deleting (at t1 c_6_18)
Adding (at t1 c_6_19)

Checking next happening (time 240)
Deleting (at t1 c_6_19)
Adding (at t1 c_6_20)

Checking next happening (time 241)
Deleting (at t1 c_6_20)
Adding (at t1 c_6_21)

Checking next happening (time 242)
Deleting (at t1 c_6_21)
Adding (at t1 c_6_22)

Checking next happening (time 243)
Deleting (at t1 c_6_22)
Adding (at t1 c_6_23)

Checking next happening (time 244)
Deleting (at t1 c_6_23)
Adding (at t1 c_6_24)

Checking next happening (time 245)
Deleting (at t1 c_6_24)
Adding (at t1 c_7_24)

Checking next happening (time 246)
Deleting (at t1 c_7_24)
Adding (at t1 c_8_24)

Checking next happening (time 247)
Deleting (at t1 c_8_24)
Adding (at t1 c_9_24)

Checking next happening (time 248)
Deleting (at t1 c_9_24)
Adding (at t1 c_10_24)

Checking next happening (time 249)
Deleting (carrying t1 p4)
Adding (empty t1)
Adding (at p4 c_10_24)
Plan executed successfully - checking goal
Plan valid
Final value: 249 

Successful plans:
Value: 249
 /home/jfan5/Safety-gen/runs/benchmark/optic/delivery_20260215_225923/delivery/optic_results/delivery_size37_packages1_seed37001.plan 249
